100 8
406 770
633 573
488 278
433 530
327 833
275 467
595 407
834 245
74 176
808 633
778 537
296 257
484 252
715 378
398 128
764 85
588 731
227 693
371 257
204 325
472 843
381 231
273 495
265 717
671 547
408 304
136 689
363 359
849 121
774 679
467 664
470 313
391 344
626 544
527 558
401 297
207 521
324 803
206 490
436 367
240 300
597 510
835 234
350 703
136 418
617 531
772 223
169 753
288 341
212 731
500 486
603 793
454 436
265 214
286 207
409 917
879 70
681 534
256 703
440 316
245 800
375 316
628 641
375 826
285 386
320 263
591 841
249 364
591 556
221 916
239 523
124 696
235 197
117 799
599 379
163 539
451 456
383 420
403 349
567 748
189 304
230 490
276 347
304 246
242 827
581 822
203 456
395 432
621 544
471 551
713 702
343 106
155 220
366 362
644 560
216 316
267 820
622 552
397 829
166 768
